; ./prepared/seahorn/./sv_comp_flat_small/ldv-linux-3.0/module_get_put-drivers-usb-core-usbcore.ko_false-unreach-call.cil.out.i.pp.cil.c.flat_000.smt2
(set-logic HORN)


(declare-fun |main_1| ( Int Int ) Bool)

(assert
  (forall ( (A Int) (v_1 Int) ) 
    (=>
      (and
        (and true (= 0 v_1))
      )
      (main_1 v_1 A)
    )
  )
)
(assert
  (forall ( (A Int) (B Int) (C Int) (D Bool) (E Bool) (F Bool) (G Int) (H Int) (v_8 Int) (v_9 Int) ) 
    (=>
      (and
        (main_1 v_8 C)
        (and (= 0 v_8)
     (or (= G 1) (not D) (not F))
     (or (= H G) (not D) (not F))
     (or (not E) (and D F))
     (= E true)
     (= B (+ 16 A))
     (= 1 v_9))
      )
      (main_1 v_9 H)
    )
  )
)
(assert
  (forall ( (A Int) (B Bool) (C Bool) (D Bool) (v_4 Int) (v_5 Int) ) 
    (=>
      (and
        (main_1 v_4 A)
        (and (= 1 v_4) (= C true) (or (not C) (and B D)) (= 2 v_5))
      )
      (main_1 v_5 A)
    )
  )
)
(assert
  (forall ( (A Bool) (B Bool) (C Int) (D Int) (E Bool) (F Bool) (G Int) (H Bool) (I Int) (J Int) (K Bool) (L Bool) (M Bool) (N Int) (O Int) (P Bool) (Q Bool) (R Bool) (S Int) (T Int) (U Bool) (V Int) (W Int) (X Bool) (Y Int) (Z Int) (A1 Bool) (B1 Int) (C1 Bool) (D1 Int) (E1 Int) (F1 Bool) (G1 Int) (H1 Bool) (I1 Int) (J1 Bool) (K1 Int) (L1 Int) (M1 Bool) (N1 Bool) (O1 Bool) (P1 Bool) (Q1 Bool) (R1 Int) (S1 Bool) (T1 Bool) (U1 Bool) (V1 Bool) (W1 Bool) (X1 Bool) (Y1 Int) (Z1 Int) (A2 Bool) (B2 Bool) (C2 Int) (D2 Bool) (E2 Bool) (F2 Int) (G2 Bool) (H2 Bool) (I2 Bool) (J2 Int) (K2 Int) (L2 Int) (M2 Int) (N2 Int) (O2 Bool) (P2 Bool) (Q2 Bool) (R2 Bool) (S2 Bool) (T2 Bool) (U2 Int) (V2 Int) (W2 Int) (X2 Int) (Y2 Int) (Z2 Int) (A3 Int) (B3 Int) (C3 Bool) (D3 Bool) (E3 Bool) (F3 Bool) (G3 Bool) (H3 Bool) (I3 Int) (J3 Bool) (K3 Bool) (L3 Bool) (M3 Bool) (N3 Bool) (O3 Bool) (P3 Bool) (Q3 Int) (R3 Int) (S3 Int) (T3 Int) (U3 Int) (V3 Int) (W3 Int) (X3 Int) (Y3 Bool) (Z3 Bool) (A4 Bool) (B4 Bool) (C4 Bool) (D4 Bool) (E4 Int) (F4 Bool) (G4 Bool) (H4 Bool) (I4 Bool) (J4 Bool) (K4 Bool) (L4 Bool) (M4 Bool) (N4 Bool) (O4 Bool) (P4 Int) (Q4 Int) (R4 Int) (S4 Int) (T4 Int) (U4 Int) (V4 Int) (W4 Int) (X4 Int) (Y4 Int) (Z4 Int) (A5 Int) (B5 Int) (C5 Int) (D5 Int) (E5 Bool) (v_135 Int) (v_136 Int) ) 
    (=>
      (and
        (main_1 v_135 I1)
        (let ((a!1 (or (not A4) (not (= (<= 2 X3) B))))
      (a!2 (or (not O2) (not (= (<= 2 Y1) M)))))
  (and (= 2 v_135)
       (or (and C4 I4)
           (and Y3 J4)
           (and M3 K4)
           (and F4 L4)
           (and U1 M4)
           (and S1 N4)
           (and P1 O4)
           (not H4))
       (or (and J3 N3) (and G3 O3) (and A2 P3) (not M3))
       (or (and O2 R2) (and G2 S2) (and D2 T2) (not Q2))
       (or (= W4 A3) (not F4) (not L4))
       (or (= V4 B3) (not F4) (not L4))
       (or (= D1 W4) (not F4) (not L4))
       (or (= D5 V4) (not F4) (not L4))
       (or (= Q4 W3) (not C4) (not I4))
       (or (= P4 E4) (not C4) (not I4))
       (or (= D1 Q4) (not C4) (not I4))
       (or (= D5 P4) (not C4) (not I4))
       (or (= S4 W3) (not Y3) (not J4))
       (or (= R4 X3) (not Y3) (not J4))
       (or (= D1 S4) (not Y3) (not J4))
       (or (= D5 R4) (not Y3) (not J4))
       (or (= U4 W3) (not M3) (not K4))
       (or (= T4 X3) (not M3) (not K4))
       (or (= D1 U4) (not M3) (not K4))
       (or (= D5 T4) (not M3) (not K4))
       (or (and E3 K3) (and C3 L3) (not J3))
       (or (= X3 R3) (not J3) (not N3))
       (or (= W3 Q3) (not J3) (not N3))
       (or (= R3 B3) (not J3) (not N3))
       (or (= Q3 A3) (not J3) (not N3))
       (or (= X3 T3) (not G3) (not O3))
       (or (= W3 S3) (not G3) (not O3))
       (or (= T3 I3) (not G3) (not O3))
       (or (= S3 A3) (not G3) (not O3))
       (or (= B3 V2) (not O2) (not R2))
       (or (= A3 U2) (not O2) (not R2))
       (or (= V2 I1) (not O2) (not R2))
       (or (= U2 N2) (not O2) (not R2))
       (or (and D2 H2) (and W1 I2) (not G2))
       (or (= B3 X2) (not G2) (not S2))
       (or (= A3 W2) (not G2) (not S2))
       (or (= X2 Y1) (not G2) (not S2))
       (or (= W2 N2) (not G2) (not S2))
       (or (= B3 Z2) (not D2) (not T2))
       (or (= A3 Y2) (not D2) (not T2))
       (or (= Z2 Y1) (not D2) (not T2))
       (or (= Y2 C2) (not D2) (not T2))
       (or (= N2 J2) (not D2) (not H2))
       (or (= K2 F2) (not D2) (not H2))
       (or (= J2 C2) (not D2) (not H2))
       (or (= V K2) (not D2) (not H2))
       (or (= X3 V3) (not A2) (not P3))
       (or (= W3 U3) (not A2) (not P3))
       (or (= V3 Y1) (not A2) (not P3))
       (or (= U3 0) (not A2) (not P3))
       (or (= N2 L2) (not W1) (not I2))
       (or (= M2 R1) (not W1) (not I2))
       (or (= L2 (- 19)) (not W1) (not I2))
       (or (= V M2) (not W1) (not I2))
       (or (= D1 Y4) (not U1) (not M4))
       (or (= D5 X4) (not U1) (not M4))
       (or (= Y4 (- 19)) (not U1) (not M4))
       (or (= X4 I1) (not U1) (not M4))
       (or (= A5 (- 19)) (not S1) (not N4))
       (or (= D1 A5) (not S1) (not N4))
       (or (= D5 Z4) (not S1) (not N4))
       (or (= Z4 I1) (not S1) (not N4))
       (or (= C5 (- 19)) (not P1) (not O4))
       (or (= D1 C5) (not P1) (not O4))
       (or (= B5 I1) (not P1) (not O4))
       (or (= D5 B5) (not P1) (not O4))
       (or (not H1) (not M1) (not O1))
       (or F1 (not N1) (not Q1))
       (or C1 (not P1) (not O4))
       (or (not C1) (not P1) (not T1))
       (or A1 (not S1) (not N4))
       (or (not A1) (not S1) (not V1))
       (or (not X) (not U1) (not M4))
       (or X (not U1) (not X1))
       (or U (not W1) (not I2))
       (or (not U) (not W1) (not B2))
       (or R (not A2) (not P3))
       (or (not R) (not A2) (not E2))
       (or Q (not D2) (not T2))
       (or (not Q) (not D2) (not H2))
       (or P (not G2) (not S2))
       (or (not P) (not G2) (not P2))
       (or (not M) (not O2) (not R2))
       (or L (not Q2) (not G4))
       (or (not L) (not Q2) (not D3))
       (or K (not C3) (not L3))
       (or (not K) (not C3) (not F3))
       (or (not H) (not E3) (not K3))
       (or H (not E3) (not H3))
       (or F (not M3) (not K4))
       (or (not F) (not M3) (not Z3))
       (or E (not Y3) (not J4))
       (or (not E) (not Y3) (not B4))
       (or (not B) (not A4) (not D4))
       (or (not E5) (not H4) (= L1 K1))
       (or (not E5) (not H4) (= K1 D5))
       (or A (not H4) (not E5))
       (or (not H4) (= A (= D1 0)))
       (or (not F4) (and Q2 G4))
       (or (not C4) (= E4 (+ (- 1) X3)))
       (or (not C4) (and A4 D4))
       a!1
       (or (not A4) (and Y3 B4))
       (or (not Y3) (= E (= D 0)))
       (or (not Y3) (= C Z1))
       (or (not Y3) (and M3 Z3))
       (or (not M3) (= F (= Z1 0)))
       (or (not G3) (= I3 (+ 1 B3)))
       (or (not G3) (and E3 H3))
       (or (not E3) (= H (= G 1)))
       (or (not E3) (and C3 F3))
       (or (not C3) (= K (= J 0)))
       (or (not C3) (= I Z1))
       (or (not C3) (and Q2 D3))
       (or (not Q2) (= L (= Z1 0)))
       a!2
       (or (not O2) (and G2 P2))
       (or (not G2) (= P (= O 0)))
       (or (not G2) (= N V))
       (or (not D2) (= Q (= F2 0)))
       (or (not D2) (and A2 E2))
       (or (not A2) (= R (= C2 0)))
       (or (not A2) (and W1 B2))
       (or (not W1) (= U (= T 0)))
       (or (not W1) (= Y1 (+ 1 I1)))
       (or (not W1) (= S (+ 44 R1)))
       (or (not W1) (and U1 X1))
       (or (not U1) (= X (= W 1)))
       (or (not U1) (and S1 V1))
       (or (not S1) (= A1 (= Z 0)))
       (or (not S1) (= Y R1))
       (or (not S1) (and P1 T1))
       (or (not P1) (= C1 (= B1 0)))
       (or (not P1) (= R1 B1))
       (or (not P1) (and N1 Q1))
       (or (not N1) (= F1 (= E1 0)))
       (or (not N1) (and M1 O1))
       (or (not J1) (and E5 H4))
       (= J1 true)
       (= H1 (= G1 0))
       (= 1 v_136)))
      )
      (main_1 v_136 L1)
    )
  )
)
(assert
  (forall ( (A Int) (B Bool) (C Int) (D Bool) (E Int) (F Bool) (G Bool) (H Bool) (I Bool) (J Bool) (v_10 Int) (v_11 Int) ) 
    (=>
      (and
        (main_1 v_10 E)
        (and (= 2 v_10)
     (or (not B) (not G) (not J))
     (or (not D) (not F) (not H))
     (or (not I) (and G J))
     (or (not G) (= B (= A 0)))
     (or (not G) (and F H))
     (= I true)
     (= D (= C 0))
     (= 2 v_11))
      )
      (main_1 v_11 E)
    )
  )
)
(assert
  (forall ( (A Bool) (B Int) (C Bool) (D Int) (E Bool) (F Int) (G Int) (H Bool) (I Bool) (J Int) (K Bool) (L Int) (M Int) (N Bool) (O Bool) (P Bool) (Q Int) (R Int) (S Bool) (T Bool) (U Bool) (V Int) (W Int) (X Bool) (Y Int) (Z Int) (A1 Bool) (B1 Int) (C1 Int) (D1 Bool) (E1 Int) (F1 Bool) (G1 Int) (H1 Int) (I1 Bool) (J1 Int) (K1 Bool) (L1 Int) (M1 Int) (N1 Bool) (O1 Bool) (P1 Bool) (Q1 Bool) (R1 Bool) (S1 Int) (T1 Bool) (U1 Bool) (V1 Bool) (W1 Bool) (X1 Bool) (Y1 Bool) (Z1 Int) (A2 Int) (B2 Bool) (C2 Bool) (D2 Int) (E2 Bool) (F2 Bool) (G2 Int) (H2 Bool) (I2 Bool) (J2 Bool) (K2 Int) (L2 Int) (M2 Int) (N2 Int) (O2 Int) (P2 Bool) (Q2 Bool) (R2 Bool) (S2 Bool) (T2 Bool) (U2 Bool) (V2 Int) (W2 Int) (X2 Int) (Y2 Int) (Z2 Int) (A3 Int) (B3 Int) (C3 Int) (D3 Bool) (E3 Bool) (F3 Bool) (G3 Bool) (H3 Bool) (I3 Bool) (J3 Int) (K3 Bool) (L3 Bool) (M3 Bool) (N3 Bool) (O3 Bool) (P3 Bool) (Q3 Bool) (R3 Int) (S3 Int) (T3 Int) (U3 Int) (V3 Int) (W3 Int) (X3 Int) (Y3 Int) (Z3 Bool) (A4 Bool) (B4 Bool) (C4 Bool) (D4 Bool) (E4 Bool) (F4 Int) (G4 Bool) (H4 Bool) (I4 Bool) (J4 Bool) (K4 Bool) (L4 Bool) (M4 Bool) (N4 Bool) (O4 Bool) (P4 Bool) (Q4 Int) (R4 Int) (S4 Int) (T4 Int) (U4 Int) (V4 Int) (W4 Int) (X4 Int) (Y4 Int) (Z4 Int) (A5 Int) (B5 Int) (C5 Int) (D5 Int) (E5 Int) (F5 Bool) (G5 Bool) (H5 Bool) (I5 Bool) (J5 Bool) (K5 Int) (L5 Bool) (M5 Bool) (N5 Int) (O5 Bool) (P5 Bool) (Q5 Bool) (R5 Int) (S5 Int) (T5 Bool) (U5 Bool) (V5 Bool) (v_152 Int) (v_153 Int) ) 
    (=>
      (and
        (main_1 v_152 M1)
        (let ((a!1 (or (not P2) (not (= (<= 2 Z1) P))))
      (a!2 (or (not B4) (not (= (<= 2 Y3) E)))))
  (and (= 2 v_152)
       (or (and D4 J4)
           (and Z3 K4)
           (and N3 L4)
           (and G4 M4)
           (and V1 N4)
           (and T1 O4)
           (not I4)
           (and P4 Q1))
       (or (and K3 O3) (and H3 P3) (and B2 Q3) (not N3))
       (or (and H2 T2) (and E2 U2) (not R2) (and S2 P2))
       (or (not O5) (and P5 I5) (and L5 Q5))
       (or (= B S5) (not L5) (not Q5))
       (or (= S5 L1) (not L5) (not Q5))
       (or (= D K5) (not I4) (not J5))
       (or (= K5 E5) (not I4) (not J5))
       (or (= E5 S4) (not Z3) (not K4))
       (or (= T4 X3) (not Z3) (not K4))
       (or (= S4 Y3) (not Z3) (not K4))
       (or (= G1 T4) (not Z3) (not K4))
       (or (= E5 U4) (not N3) (not L4))
       (or (= U4 Y3) (not N3) (not L4))
       (or (= G1 V4) (not N3) (not L4))
       (or (= V4 X3) (not N3) (not L4))
       (or (= Y3 W3) (not B2) (not Q3))
       (or (= X3 V3) (not B2) (not Q3))
       (or (= W3 Z1) (not B2) (not Q3))
       (or (= V3 0) (not B2) (not Q3))
       (or (= E5 Y4) (not V1) (not N4))
       (or (= Z4 (- 19)) (not V1) (not N4))
       (or (= Y4 M1) (not V1) (not N4))
       (or (= G1 Z4) (not V1) (not N4))
       (or (= L1 N5) (not N1) (not M5))
       (or (= N5 M1) (not N1) (not M5))
       (or K1 (not N1) (not M5))
       (or (not K1) (not N1) (not P1))
       (or (not F1) (not Q1) (not U1))
       (or (not A1) (not V1) (not N4))
       (or (not X) (not X1) (not C2))
       (or U (not B2) (not Q3))
       (or P (not P2) (not H5))
       (or N (not D3) (not M3))
       (or I (not N3) (not L4))
       (or H (not Z3) (not K4))
       (or (not C) (not I4) (not J5))
       (or (not P5) (not I5) (= B R5))
       (or (not P5) (not I5) (= R5 D))
       (or (not F5) (and B4 G5) (and P2 H5))
       (or (not P4) (not Q1) (= E5 C5))
       (or (not P4) (not Q1) (= D5 (- 19)))
       (or (not P4) (not Q1) (= C5 M1))
       (or (not P4) (not Q1) (= G1 D5))
       (or F1 (not P4) (not Q1))
       (or (= E5 W4) (not G4) (not M4))
       (or (= X4 B3) (not G4) (not M4))
       (or (= W4 C3) (not G4) (not M4))
       (or (= G1 X4) (not G4) (not M4))
       (or (= E5 Q4) (not D4) (not J4))
       (or (= R4 X3) (not D4) (not J4))
       (or (= Q4 F4) (not D4) (not J4))
       (or (= G1 R4) (not D4) (not J4))
       (or (not H) (not C4) (not Z3))
       (or E (not B4) (not G5))
       (or (not E) (not E4) (not B4))
       (or (not I) (not A4) (not N3))
       (or (not K3) (and F3 L3) (and D3 M3))
       (or (= Y3 S3) (not K3) (not O3))
       (or (= X3 R3) (not K3) (not O3))
       (or (= S3 C3) (not K3) (not O3))
       (or (= R3 B3) (not K3) (not O3))
       (or (= Y3 U3) (not H3) (not P3))
       (or (= X3 T3) (not H3) (not P3))
       (or (= U3 J3) (not H3) (not P3))
       (or (= T3 B3) (not H3) (not P3))
       (or (not N) (not G3) (not D3))
       (or (not K) (not F3) (not L3))
       (or K (not F3) (not I3))
       (or (not S2) (not P2) (= V2 O2))
       (or (not S2) (not P2) (= C3 W2))
       (or (not S2) (not P2) (= B3 V2))
       (or (not S2) (not P2) (= W2 M1))
       (or (not P) (not S2) (not P2))
       (or O (not R2) (not H4))
       (or (not O) (not R2) (not E3))
       (or (not J2) (not X1) (= O2 M2))
       (or (not J2) (not X1) (= N2 S1))
       (or (not J2) (not X1) (= M2 (- 19)))
       (or (not J2) (not X1) (= Y N2))
       (or X (not J2) (not X1))
       (or (and E2 I2) (not H2) (and J2 X1))
       (or (= Y2 Z1) (not H2) (not T2))
       (or (= X2 O2) (not H2) (not T2))
       (or (= C3 Y2) (not H2) (not T2))
       (or (= B3 X2) (not H2) (not T2))
       (or (not U) (not F2) (not B2))
       (or (= O2 K2) (not E2) (not I2))
       (or (= L2 G2) (not E2) (not I2))
       (or (= K2 D2) (not E2) (not I2))
       (or (= Y L2) (not E2) (not I2))
       (or (not T) (not E2) (not I2))
       (or (= Z2 D2) (not U2) (not E2))
       (or (= C3 A3) (not U2) (not E2))
       (or (= B3 Z2) (not U2) (not E2))
       (or (= A3 Z1) (not U2) (not E2))
       (or T (not U2) (not E2))
       (or (not Y1) A1 (not V1))
       (or (not T1) (= E5 A5) (not O4))
       (or (not T1) (= B5 (- 19)) (not O4))
       (or (not T1) (= A5 M1) (not O4))
       (or (not T1) (= G1 B5) (not O4))
       (or I1 (not R1) (not O1))
       (or D1 (not T1) (not O4))
       (or (not T1) (not D1) (not W1))
       (or S (not H2) (not T2))
       (or (not S) (not H2) (not Q2))
       (or (not T5) (and U5 F5) (and V5 O5))
       (or (not O5) (= A (= B 1)))
       (or (not L5) (and N1 M5))
       (or (not I5) (and I4 J5))
       (or (not I4) (= C (= G1 0)))
       (or (not Z3) (= H (= G 0)))
       (or (not Z3) (= F A2))
       (or (not Z3) (and A4 N3))
       (or (not N3) (= I (= A2 0)))
       (or (not D3) (= N (= M 0)))
       (or (not D3) (= L A2))
       (or (not D3) (and R2 E3))
       a!1
       (or (not P2) (and H2 Q2))
       (or (not B2) (= U (= D2 0)))
       (or (not B2) (and X1 C2))
       (or (not X1) (= X (= W 0)))
       (or (not X1) (= V (+ 44 S1)))
       (or (not X1) (= Z1 (+ 1 M1)))
       (or (not X1) (and Y1 V1))
       (or (not V1) (= A1 (= Z 1)))
       (or (not V1) (and T1 W1))
       (or (not Q1) (= F1 (= E1 0)))
       (or (not Q1) (= S1 E1))
       (or (not Q1) (and O1 R1))
       (or (not A) (not O5))
       (or (not G4) (and R2 H4))
       (or (not D4) (= F4 (+ (- 1) Y3)))
       (or (not D4) (and B4 E4))
       a!2
       (or (not B4) (and C4 Z3))
       (or (not H3) (= J3 (+ 1 C3)))
       (or (not H3) (and F3 I3))
       (or (not F3) (= K (= J 1)))
       (or (not F3) (and G3 D3))
       (or (not R2) (= O (= A2 0)))
       (or (not H2) (= S (= R 0)))
       (or (not H2) (= Q Y))
       (or (not E2) (= T (= G2 0)))
       (or (not E2) (and F2 B2))
       (or (not T1) (= D1 (= C1 0)))
       (or (not T1) (= B1 S1))
       (or (not T1) (and Q1 U1))
       (or (not O1) (= I1 (= H1 0)))
       (or (not O1) (and N1 P1))
       (= T5 true)
       (= K1 (= J1 0))
       (= 3 v_153)))
      )
      (main_1 v_153 M1)
    )
  )
)
(assert
  (forall ( (A Int) (v_1 Int) ) 
    (=>
      (and
        (main_1 v_1 A)
        (= 3 v_1)
      )
      false
    )
  )
)

(check-sat)
(exit)
